
Gurobi 7.5.2 (linux64) logging started Sat Jun 23 16:36:53 2018

Changed value of parameter LogFile to result/ilp/simNo_8-n_100-m_40-s_7-minVAF_0.05-cov_2000-k_2-fn_0.15-fp_0.0001-na_0.15.ILP.gurobiSolverLog
   Prev: gurobi.log  Default: 
Changed value of parameter TimeLimit to 86400.0
   Prev: 1e+100  Min: 0.0  Max: 1e+100  Default: 1e+100
Optimize a model with 1265601 rows, 330440 columns and 3489120 nonzeros
Variable types: 0 continuous, 330440 integer (330440 binary)
Coefficient statistics:
  Matrix range     [1e-03, 2e+00]
  Objective range  [2e+00, 1e+01]
  Bounds range     [1e+00, 1e+00]
  RHS range        [1e-01, 2e+00]
Found heuristic solution: objective -11353.44744
Presolve removed 382149 rows and 226780 columns (presolve time = 6s) ...
Presolve removed 395598 rows and 226780 columns (presolve time = 10s) ...
Presolve removed 395838 rows and 226780 columns (presolve time = 15s) ...
Presolve removed 395838 rows and 226780 columns (presolve time = 20s) ...
Presolve removed 395838 rows and 226780 columns (presolve time = 25s) ...
Presolve removed 395838 rows and 226780 columns (presolve time = 30s) ...
Presolve removed 395838 rows and 226780 columns (presolve time = 35s) ...
Presolve removed 395838 rows and 226780 columns (presolve time = 40s) ...
Presolve removed 395838 rows and 226780 columns (presolve time = 46s) ...
Presolve removed 395838 rows and 226780 columns
Presolve time: 47.82s
Presolved: 869763 rows, 103660 columns, 2420160 nonzeros
Variable types: 0 continuous, 103660 integer (103660 binary)
Presolve removed 0 rows and 0 columns (presolve time = 5s) ...
Presolved: 103660 rows, 973423 columns, 2523820 nonzeros

Presolve removed 103660 rows and 973423 columns

Root simplex log...

Iteration    Objective       Primal Inf.    Dual Inf.      Time
       0    2.4752478e+01   0.000000e+00   7.700400e+04     60s
    4816   -5.7208999e+01   0.000000e+00   9.789650e+04     61s
   11897   -1.7531306e+02   0.000000e+00   8.072300e+04     65s
   22757   -2.3453271e+02   0.000000e+00   2.067500e+03     70s
   23559   -2.3889728e+02   0.000000e+00   0.000000e+00     71s
   23559   -2.3889728e+02   0.000000e+00   0.000000e+00     74s

Root relaxation: objective -2.388973e+02, 23559 iterations, 22.40 seconds
Total elapsed time = 75.73s
Total elapsed time = 99.20s
Total elapsed time = 113.82s

    Nodes    |    Current Node    |     Objective Bounds      |     Work
 Expl Unexpl |  Obj  Depth IntInf | Incumbent    BestBd   Gap | It/Node Time

     0     0 -238.89728    0  163 -11353.447 -238.89728  97.9%     -  124s
H    0     0                    -247.7691171 -238.89728  3.58%     -  131s
     0     0 -239.78446    0  170 -247.76912 -239.78446  3.22%     -  145s
     0     0 -239.78446    0  171 -247.76912 -239.78446  3.22%     -  162s
     0     0 -240.67165    0  136 -247.76912 -240.67165  2.86%     -  223s
     0     0 -240.67165    0  111 -247.76912 -240.67165  2.86%     -  309s
     0     0 -240.67165    0  114 -247.76912 -240.67165  2.86%     -  312s
     0     0 -240.67165    0  108 -247.76912 -240.67165  2.86%     -  314s
     0     0 -241.55883    0  106 -247.76912 -241.55883  2.51%     -  316s
     0     0 -241.55883    0   91 -247.76912 -241.55883  2.51%     -  317s
     0     0 -241.55883    0   98 -247.76912 -241.55883  2.51%     -  319s
     0     0 -241.62002    0  110 -247.76912 -241.62002  2.48%     -  320s
     0     0 -241.62002    0  109 -247.76912 -241.62002  2.48%     -  322s
     0     0 -242.44601    0   87 -247.76912 -242.44601  2.15%     -  323s
     0     0 -242.44601    0   85 -247.76912 -242.44601  2.15%     -  324s
     0     0 -242.44601    0  126 -247.76912 -242.44601  2.15%     -  326s
     0     0 -242.45683    0  131 -247.76912 -242.45683  2.14%     -  327s
     0     0 -242.45683    0  130 -247.76912 -242.45683  2.14%     -  329s
     0     0 -243.32211    0  112 -247.76912 -243.32211  1.79%     -  332s
     0     0 -243.33320    0  113 -247.76912 -243.33320  1.79%     -  333s
     0     0 -243.43782    0  116 -247.76912 -243.43782  1.75%     -  334s
     0     0 -243.44410    0  117 -247.76912 -243.44410  1.75%     -  334s
     0     0 -243.77679    0  113 -247.76912 -243.77679  1.61%     -  335s
     0     0 -244.22038    0  114 -247.76912 -244.22038  1.43%     -  337s
     0     0 -244.22038    0  114 -247.76912 -244.22038  1.43%     -  338s
     0     0 -244.22038    0  111 -247.76912 -244.22038  1.43%     -  340s
     0     0 -244.22038    0   78 -247.76912 -244.22038  1.43%     -  341s
     0     0 -244.22038    0   97 -247.76912 -244.22038  1.43%     -  342s
     0     0 -244.22038    0   96 -247.76912 -244.22038  1.43%     -  344s
     0     0 -244.22038    0   84 -247.76912 -244.22038  1.43%     -  346s
     0     0 -244.22038    0  113 -247.76912 -244.22038  1.43%     -  348s
     0     0 -244.22038    0  105 -247.76912 -244.22038  1.43%     -  349s
     0     0 -244.22038    0   85 -247.76912 -244.22038  1.43%     -  351s
     0     0 -244.22038    0   74 -247.76912 -244.22038  1.43%     -  356s
     0     0 -244.22038    0  114 -247.76912 -244.22038  1.43%     -  357s
     0     0 -244.22038    0   80 -247.76912 -244.22038  1.43%     -  362s
     0     0 -244.22038    0   87 -247.76912 -244.22038  1.43%     -  364s
     0     0 -244.22038    0   80 -247.76912 -244.22038  1.43%     -  370s
     0     0     cutoff    0      -247.76912 -247.76912  0.00%     -  375s

Cutting planes:
  Gomory: 3
  Zero half: 25

Explored 1 nodes (58525 simplex iterations) in 376.17 seconds
Thread count was 1 (of 80 available processors)

Solution count 3: -247.769 -247.769 -11353.4 

Optimal solution found (tolerance 1.00e-04)
Best objective -2.477691170740e+02, best bound -2.477691170740e+02, gap 0.0000%
